SAT
-1 -100 -99 98 -32 93 47 61 -96 -81 -39 19 16 -92 -9 42 40 23 44 69 -86 -65 -34 -51 -88 66 37 10 20 -89 26 50 -8 -3 11 -45 -13 -74 53 -59 -78 -58 -7 -14 54 55 -4 -12 -24 -70 -63 84 56 -15 18 64 -90 -49 -82 91 31 57 17 36 41 -62 -75 -25 -27 -80 22 -30 95 -35 -71 -83 -21 48 76 -29 85 77 -5 68 38 28 -87 79 -60 52 -94 -97 43 33 -2 67 73 -46 -72 -6 0
